[2026-03-24T16:34:57.961Z] Pipeline "set_vm-3-t3_vm-3-t3_s006_g002" → 2026_03_24_16_34_57_set_vm-3-t3_vm-3-t3_s006_g002_max.sol
Set parameter Username
Set parameter LicenseID to value 2796068
Set parameter LogFile to value "gurobi.log"
Using license file /opt/gurobi/gurobi.lic
Academic license - for non-commercial use only - expires 2027-03-23

Gurobi Optimizer version 13.0.1 build v13.0.1rc0 (linux64 - "Ubuntu 24.04.4 LTS")
Copyright (c) 2026, Gurobi Optimization, LLC

Warning: Duplicate section found (read 'binary') - Is a variable name equal to an LP file format keyword?
Warning: Duplicate section found (read 'binary') - Is a variable name equal to an LP file format keyword?
Warning: Duplicate section found (read 'binary') - Is a variable name equal to an LP file format keyword?
Warning: Duplicate section found (read 'binary') - Is a variable name equal to an LP file format keyword?
Warning: Duplicate section found (read 'binary') - Is a variable name equal to an LP file format keyword?
Warning: Duplicate section found (read 'binary') - Is a variable name equal to an LP file format keyword?
Warning: Duplicate section found (read 'binary') - Is a variable name equal to an LP file format keyword?
Warning: Duplicate section found (read 'binary') - Is a variable name equal to an LP file format keyword?
Warning: Duplicate section found (read 'binary') - Is a variable name equal to an LP file format keyword?
Warning: Duplicate section found (read 'binary') - Is a variable name equal to an LP file format keyword?
Warning: Further warnings of this type will be omitted.
Read LP format model from file /root/bgw/data/uploads/2026_03_24_16_34_57_set_vm-3-t3_vm-3-t3_s006_g002_max.lp
Reading time = 0.00 seconds
: 1543 rows, 220 columns, 4615 nonzeros

Using Gurobi shared library /opt/gurobi1301/linux64/lib/libgurobi.so.13.0.1

CPU model: AMD EPYC-Genoa Processor, instruction set [SSE2|AVX|AVX2|AVX512]
Thread count: 16 physical cores, 16 logical processors, using up to 16 threads

Optimize a model with 1543 rows, 220 columns and 4615 nonzeros (Max)
Model fingerprint: 0x7d462ae1
Model has 43 linear objective coefficients
Variable types: 59 continuous, 161 integer (161 binary)
Coefficient statistics:
  Matrix range     [1e+00, 2e+01]
  Objective range  [1e+00, 1e+00]
  Bounds range     [1e+00, 1e+00]
  RHS range        [1e+00, 2e+01]

Found heuristic solution: objective 43.0000000
Presolve removed 382 rows and 76 columns
Presolve time: 0.00s
Presolved: 1161 rows, 144 columns, 3574 nonzeros
Variable types: 0 continuous, 144 integer (137 binary)
Found heuristic solution: objective 58.0000000

Root relaxation: objective 2.710000e+02, 65 iterations, 0.00 seconds (0.00 work units)

    Nodes    |    Current Node    |     Objective Bounds      |     Work
 Expl Unexpl |  Obj  Depth IntInf | Incumbent    BestBd   Gap | It/Node Time

     0     0  271.00000    0   25   58.00000  271.00000   367%     -    0s
H    0     0                      88.0000000  271.00000   208%     -    0s
H    0     0                     104.0000000  271.00000   161%     -    0s
     0     0  271.00000    0   26  104.00000  271.00000   161%     -    0s
H    0     0                     118.0000000  271.00000   130%     -    0s
     0     0  271.00000    0   26  118.00000  271.00000   130%     -    0s
     0     0  271.00000    0   26  118.00000  271.00000   130%     -    0s
     0     0  269.92857    0   26  118.00000  269.92857   129%     -    0s
     0     0  256.00000    0   26  118.00000  256.00000   117%     -    0s
     0     0  256.00000    0   26  118.00000  256.00000   117%     -    0s
H    0     0                     119.0000000  256.00000   115%     -    0s
H    0     0                     120.0000000  256.00000   113%     -    0s
     0     0  256.00000    0   26  120.00000  256.00000   113%     -    0s
     0     0  256.00000    0   26  120.00000  256.00000   113%     -    0s
     0     2  256.00000    0   25  120.00000  256.00000   113%     -    0s

Cutting planes:
  Gomory: 9
  Cover: 144
  MIR: 6
  StrongCG: 1
  Inf proof: 158
  Zero half: 6

Explored 16868 nodes (675578 simplex iterations) in 1.73 seconds (2.93 work units)
Thread count was 16 (of 16 available processors)

Solution count 7: 120 119 118 ... 43

Optimal solution found (tolerance 1.00e-04)
Best objective 1.200000000000e+02, best bound 1.200000000000e+02, gap 0.0000%

Wrote result file '/root/bgw/data/results/2026_03_24_16_34_57_set_vm-3-t3_vm-3-t3_s006_g002_max.sol'

